p cnf 65 207
28 52 0
31 37 0
14 38 57 0
26 33 0
39 40 42 0
25 36 41 0
21 24 0
17 19 20 34 0
11 15 0
8 9 10 29 0
7 13 0
18 44 0
27 30 0
45 46 0
47 48 0
16 49 0
50 59 0
22 51 53 55 0
56 58 0
-52 -60 0
-57 -60 0
-54 -60 0
-52 -57 0
-52 -54 0
-54 -57 0
-33 -42 0
-33 -41 0
-33 -61 0
-41 -42 0
-42 -61 0
-41 -61 0
-32 -62 0
-32 -44 0
-27 -32 0
-44 -62 0
-27 -62 0
-27 -44 0
-16 -50 0
-16 -51 0
-16 -56 0
-50 -51 0
-50 -56 0
-51 -56 0
-33 -60 0
-32 -60 0
-16 -60 0
-32 -33 0
-16 -33 0
-16 -32 0
-42 -52 0
-52 -62 0
-50 -52 0
-42 -62 0
-42 -50 0
-50 -62 0
-41 -57 0
-44 -57 0
-51 -57 0
-41 -44 0
-41 -51 0
-44 -51 0
-54 -61 0
-27 -54 0
-54 -56 0
-27 -61 0
-56 -61 0
-27 -56 0
-28 -35 0
-31 -35 0
-35 -38 0
-35 -63 0
-28 -31 0
-28 -38 0
-28 -63 0
-31 -38 0
-31 -63 0
-38 -63 0
-26 -40 0
-23 -26 0
-25 -26 0
-12 -26 0
-23 -40 0
-25 -40 0
-12 -40 0
-23 -25 0
-12 -23 0
-12 -25 0
-20 -24 0
-15 -24 0
-10 -24 0
-7 -24 0
-15 -20 0
-10 -20 0
-7 -20 0
-10 -15 0
-7 -15 0
-7 -10 0
-64 -65 0
-43 -64 0
-18 -64 0
-30 -64 0
-43 -65 0
-18 -65 0
-30 -65 0
-18 -43 0
-30 -43 0
-18 -30 0
-6 -45 0
-5 -6 0
-6 -47 0
-4 -6 0
-5 -45 0
-45 -47 0
-4 -45 0
-5 -47 0
-4 -5 0
-4 -47 0
-26 -35 0
-24 -35 0
-35 -64 0
-6 -35 0
-24 -26 0
-26 -64 0
-6 -26 0
-24 -64 0
-6 -24 0
-6 -64 0
-28 -40 0
-20 -28 0
-28 -65 0
-28 -45 0
-20 -40 0
-40 -65 0
-40 -45 0
-20 -65 0
-20 -45 0
-45 -65 0
-23 -31 0
-15 -31 0
-31 -43 0
-5 -31 0
-15 -23 0
-23 -43 0
-5 -23 0
-15 -43 0
-5 -15 0
-5 -43 0
-25 -38 0
-10 -38 0
-18 -38 0
-38 -47 0
-10 -25 0
-18 -25 0
-25 -47 0
-10 -18 0
-10 -47 0
-18 -47 0
-12 -63 0
-7 -63 0
-30 -63 0
-4 -63 0
-7 -12 0
-12 -30 0
-4 -12 0
-7 -30 0
-4 -7 0
-4 -30 0
-36 -39 0
-3 -39 0
-3 -36 0
-9 -19 0
-13 -19 0
-9 -13 0
-53 -59 0
-58 -59 0
-53 -58 0
-19 -39 0
-39 -59 0
-19 -59 0
-9 -36 0
-36 -53 0
-9 -53 0
-3 -13 0
-3 -58 0
-13 -58 0
-17 -29 0
-46 -48 0
-17 -46 0
-29 -48 0
-1 -37 0
-1 -14 0
-14 -37 0
-11 -21 0
-8 -21 0
-8 -11 0
-2 -49 0
-49 -55 0
-2 -55 0
-1 -21 0
-1 -49 0
-21 -49 0
-11 -37 0
-2 -37 0
-2 -11 0
-8 -14 0
-14 -55 0
-8 -55 0
